Route 1: 27 52 18 6 96 91 93
Route 2: 92 95 98 99 94 97 60 100
Route 3: 59 69 76 79 50 1 70
Route 4: 2 21 73 22 56 74 80
Route 5: 31 88 7 10 48
Route 6: 5 83 61 85 37 17
Route 7: 42 15 87 57 43
Route 8: 33 29 81 3 68 24 77
Route 9: 72 75 41 55 4 25
Route 10: 45 82 84 58
Route 11: 39 23 67 54
Route 12: 63 30 51 9 20 32
Route 13: 62 19 8 46
Route 14: 14 16 86 13 89
Route 15: 65 71 78 34 35
Route 16: 47 11 90 66
Route 17: 44 38
Route 18: 36 64 49
Route 19: 28 12 40 53 26
Vehicles: 19
Distance: 1932.98
